%chk=PuVO2-OH2_5.chk
# hf/3-21g geom=connectivity

Title Card Required

0 1
 Pu                -0.00000000   -0.00000000    0.00000000
 H                  0.00000000    2.72291610   -1.01411434
 H                  0.00000000    2.72291610    1.01411434
 H                  2.58964710    0.84142735   -1.01411434
 H                  2.58964710    0.84142735    1.01411434
 H                 -2.58964710    0.84142735    1.01411434
 H                 -2.58964710    0.84142735   -1.01411434
 H                 -1.60048993   -2.20288540   -1.01411434
 H                 -1.60048993   -2.20288540    1.01411434
 H                  1.60048993   -2.20288540    1.01411434
 H                  1.60048993   -2.20288540   -1.01411434
 O                 -0.00000000   -0.00000000    1.90997736
 O                 -0.00000000   -0.00000000   -1.90997736
 O                  1.25197609   -1.72319726    0.00000000
 O                 -0.00000000    2.12998895    0.00000000
 O                  2.02573987    0.65820278    0.00000000
 O                 -2.02573987    0.65820278    0.00000000
 O                 -1.25197609   -1.72319726    0.00000000

 1 12 1.0 13 1.0 14 1.0 15 1.0 16 1.0 17 1.0 18 1.0
 2 15 1.0
 3 15 1.0
 4 16 1.0
 5 16 1.0
 6 17 1.0
 7 17 1.0
 8 18 1.0
 9 18 1.0
 10 14 1.0
 11 14 1.0
 12
 13
 14
 15
 16
 17
 18

